param n := 60;
param c := 3000
param : V : p w :=
   0	  33	 351
   1	   9	 258
   2	  19	 391
   3	  19	 359
   4	   2	 259
   5	  32	 382
   6	  51	 376
   7	   1	 308
   8	  40	 316
   9	  95	 445
  10	  48	 275
  11	  74	 280
  12	  57	 426
  13	  21	 276
  14	  52	 298
  15	  18	 468
  16	  10	 259
  17	  67	 273
  18	  71	 453
  19	  88	 258
  20	  18	 289
  21	  83	 443
  22	  59	 253
  23	  95	 304
  24	  19	 380
  25	  92	 261
  26	  29	 359
  27	  58	 377
  28	   3	 304
  29	  88	 319
  30	  70	 483
  31	  43	 254
  32	  23	 263
  33	  24	 451
  34	  33	 261
  35	  40	 288
  36	  92	 373
  37	  25	 263
  38	  45	 364
  39	  93	 417
  40	  19	 276
  41	  61	 307
  42	  88	 363
  43	   5	 294
  44	  20	 343
  45	   8	 442
  46	  96	 254
  47	  95	 304
  48	  30	 412
  49	  29	 256
  50	   2	 332
  51	  58	 369
  52	  54	 262
  53	  24	 369
  54	  21	 429
  55	  21	 252
  56	  57	 319
  57	  62	 397
  58	  96	 266
  59	  22	 337
;

set E :=
   0	   4
   0	   5
   0	   6
   0	   7
   0	  10
   0	  13
   0	  21
   0	  23
   0	  25
   0	  27
   0	  29
   0	  32
   0	  33
   0	  36
   0	  37
   0	  39
   0	  40
   0	  42
   0	  43
   0	  44
   0	  45
   0	  47
   0	  48
   0	  49
   0	  50
   0	  51
   0	  54
   0	  56
   0	  57
   0	  58
   0	  59
   1	   2
   1	   5
   1	   6
   1	   7
   1	   8
   1	   9
   1	  14
   1	  15
   1	  16
   1	  18
   1	  19
   1	  24
   1	  27
   1	  28
   1	  29
   1	  31
   1	  33
   1	  37
   1	  38
   1	  39
   1	  42
   1	  48
   1	  52
   1	  53
   1	  54
   1	  56
   1	  57
   1	  58
   2	   4
   2	   5
   2	   6
   2	   7
   2	   9
   2	  11
   2	  12
   2	  21
   2	  22
   2	  23
   2	  25
   2	  28
   2	  29
   2	  32
   2	  34
   2	  36
   2	  41
   2	  43
   2	  44
   2	  45
   2	  46
   2	  48
   2	  50
   2	  51
   2	  55
   2	  57
   2	  59
   3	   4
   3	   5
   3	   7
   3	   9
   3	  10
   3	  11
   3	  12
   3	  15
   3	  17
   3	  18
   3	  20
   3	  23
   3	  25
   3	  30
   3	  33
   3	  34
   3	  35
   3	  37
   3	  40
   3	  41
   3	  42
   3	  45
   3	  46
   3	  47
   3	  48
   3	  51
   3	  52
   3	  53
   3	  56
   3	  57
   3	  58
   3	  59
   4	   6
   4	   8
   4	   9
   4	  11
   4	  12
   4	  13
   4	  15
   4	  20
   4	  22
   4	  23
   4	  24
   4	  27
   4	  28
   4	  30
   4	  35
   4	  41
   4	  44
   4	  45
   4	  46
   4	  48
   4	  51
   4	  53
   4	  55
   4	  56
   4	  57
   5	   8
   5	   9
   5	  11
   5	  13
   5	  17
   5	  18
   5	  19
   5	  21
   5	  22
   5	  24
   5	  25
   5	  26
   5	  28
   5	  34
   5	  36
   5	  38
   5	  39
   5	  40
   5	  42
   5	  48
   5	  50
   5	  52
   5	  54
   5	  56
   5	  58
   5	  59
   6	  12
   6	  13
   6	  14
   6	  15
   6	  16
   6	  17
   6	  21
   6	  23
   6	  24
   6	  26
   6	  28
   6	  29
   6	  31
   6	  33
   6	  36
   6	  37
   6	  38
   6	  40
   6	  41
   6	  42
   6	  43
   6	  44
   6	  48
   6	  49
   6	  52
   6	  53
   6	  54
   6	  56
   6	  57
   6	  58
   6	  59
   7	   8
   7	  11
   7	  13
   7	  17
   7	  18
   7	  20
   7	  24
   7	  25
   7	  27
   7	  28
   7	  30
   7	  31
   7	  33
   7	  34
   7	  35
   7	  36
   7	  43
   7	  44
   7	  47
   7	  50
   7	  51
   7	  52
   7	  53
   7	  56
   7	  58
   8	  10
   8	  11
   8	  12
   8	  13
   8	  14
   8	  15
   8	  19
   8	  21
   8	  22
   8	  23
   8	  27
   8	  30
   8	  31
   8	  32
   8	  38
   8	  39
   8	  40
   8	  43
   8	  44
   8	  45
   8	  47
   8	  49
   8	  50
   8	  52
   8	  53
   8	  58
   8	  59
   9	  10
   9	  11
   9	  13
   9	  14
   9	  17
   9	  19
   9	  21
   9	  22
   9	  27
   9	  29
   9	  33
   9	  34
   9	  36
   9	  38
   9	  39
   9	  40
   9	  41
   9	  42
   9	  43
   9	  44
   9	  45
   9	  48
   9	  49
   9	  55
   9	  56
   9	  59
  10	  13
  10	  14
  10	  15
  10	  17
  10	  24
  10	  27
  10	  28
  10	  32
  10	  33
  10	  35
  10	  36
  10	  37
  10	  39
  10	  40
  10	  41
  10	  42
  10	  43
  10	  44
  10	  45
  10	  46
  10	  47
  10	  49
  10	  56
  10	  58
  11	  14
  11	  16
  11	  18
  11	  19
  11	  20
  11	  21
  11	  24
  11	  26
  11	  27
  11	  31
  11	  32
  11	  37
  11	  41
  11	  44
  11	  45
  11	  47
  11	  48
  11	  49
  11	  51
  11	  52
  11	  56
  11	  57
  11	  58
  11	  59
  12	  14
  12	  17
  12	  18
  12	  22
  12	  23
  12	  24
  12	  25
  12	  27
  12	  30
  12	  31
  12	  32
  12	  35
  12	  38
  12	  39
  12	  47
  12	  51
  12	  52
  12	  54
  12	  57
  13	  14
  13	  17
  13	  18
  13	  22
  13	  24
  13	  26
  13	  27
  13	  31
  13	  33
  13	  36
  13	  37
  13	  38
  13	  39
  13	  40
  13	  41
  13	  48
  13	  50
  13	  51
  13	  52
  13	  53
  13	  57
  13	  58
  13	  59
  14	  17
  14	  18
  14	  19
  14	  22
  14	  23
  14	  24
  14	  28
  14	  29
  14	  31
  14	  32
  14	  35
  14	  37
  14	  39
  14	  40
  14	  43
  14	  44
  14	  46
  14	  47
  14	  51
  14	  52
  14	  53
  14	  54
  14	  55
  14	  56
  14	  59
  15	  16
  15	  22
  15	  23
  15	  26
  15	  27
  15	  28
  15	  29
  15	  30
  15	  33
  15	  37
  15	  39
  15	  41
  15	  43
  15	  44
  15	  46
  15	  50
  15	  51
  15	  53
  15	  55
  16	  18
  16	  20
  16	  21
  16	  22
  16	  25
  16	  27
  16	  28
  16	  29
  16	  32
  16	  33
  16	  36
  16	  38
  16	  39
  16	  40
  16	  45
  16	  46
  16	  47
  16	  48
  16	  49
  16	  50
  16	  54
  16	  57
  16	  59
  17	  18
  17	  19
  17	  20
  17	  22
  17	  24
  17	  25
  17	  27
  17	  28
  17	  31
  17	  35
  17	  36
  17	  38
  17	  40
  17	  41
  17	  42
  17	  44
  17	  45
  17	  46
  17	  50
  17	  51
  17	  52
  17	  54
  17	  56
  17	  58
  18	  20
  18	  22
  18	  25
  18	  26
  18	  27
  18	  31
  18	  39
  18	  44
  18	  45
  18	  46
  18	  47
  18	  49
  18	  50
  18	  51
  18	  53
  18	  58
  18	  59
  19	  20
  19	  22
  19	  23
  19	  25
  19	  26
  19	  27
  19	  28
  19	  29
  19	  31
  19	  34
  19	  38
  19	  39
  19	  41
  19	  43
  19	  47
  19	  49
  19	  51
  19	  52
  19	  53
  19	  55
  19	  58
  19	  59
  20	  24
  20	  27
  20	  28
  20	  29
  20	  31
  20	  34
  20	  37
  20	  38
  20	  39
  20	  41
  20	  43
  20	  44
  20	  46
  20	  47
  20	  48
  20	  51
  20	  52
  20	  53
  20	  54
  20	  55
  20	  56
  20	  59
  21	  22
  21	  24
  21	  25
  21	  28
  21	  33
  21	  35
  21	  37
  21	  41
  21	  42
  21	  43
  21	  46
  21	  51
  21	  52
  21	  53
  21	  54
  21	  58
  21	  59
  22	  24
  22	  25
  22	  27
  22	  28
  22	  29
  22	  32
  22	  34
  22	  35
  22	  36
  22	  38
  22	  41
  22	  43
  22	  44
  22	  48
  22	  50
  22	  51
  22	  52
  22	  54
  22	  55
  22	  56
  22	  59
  23	  26
  23	  28
  23	  29
  23	  30
  23	  31
  23	  34
  23	  35
  23	  36
  23	  38
  23	  39
  23	  42
  23	  43
  23	  44
  23	  47
  23	  51
  23	  52
  23	  53
  23	  54
  23	  55
  23	  56
  23	  57
  23	  58
  23	  59
  24	  25
  24	  26
  24	  28
  24	  29
  24	  30
  24	  31
  24	  39
  24	  41
  24	  42
  24	  48
  24	  49
  24	  50
  24	  51
  24	  54
  24	  56
  24	  57
  25	  28
  25	  29
  25	  31
  25	  35
  25	  37
  25	  38
  25	  41
  25	  42
  25	  43
  25	  51
  25	  53
  25	  55
  25	  56
  26	  30
  26	  33
  26	  34
  26	  35
  26	  36
  26	  39
  26	  42
  26	  43
  26	  46
  26	  47
  26	  49
  26	  51
  26	  53
  26	  54
  26	  55
  26	  56
  26	  57
  26	  58
  27	  30
  27	  31
  27	  32
  27	  37
  27	  41
  27	  43
  27	  44
  27	  45
  27	  47
  27	  48
  27	  53
  27	  54
  27	  55
  27	  56
  27	  57
  27	  58
  27	  59
  28	  29
  28	  30
  28	  32
  28	  36
  28	  39
  28	  40
  28	  42
  28	  43
  28	  44
  28	  45
  28	  48
  28	  54
  28	  56
  28	  57
  28	  58
  29	  33
  29	  34
  29	  35
  29	  38
  29	  44
  29	  45
  29	  48
  29	  50
  29	  51
  29	  54
  29	  55
  29	  56
  29	  57
  29	  58
  29	  59
  30	  31
  30	  33
  30	  36
  30	  38
  30	  39
  30	  41
  30	  44
  30	  45
  30	  47
  30	  50
  30	  54
  30	  55
  30	  56
  30	  58
  31	  33
  31	  34
  31	  36
  31	  37
  31	  38
  31	  39
  31	  41
  31	  43
  31	  44
  31	  45
  31	  46
  31	  47
  31	  49
  31	  50
  31	  52
  31	  55
  31	  58
  32	  35
  32	  37
  32	  39
  32	  43
  32	  45
  32	  46
  32	  47
  32	  48
  32	  51
  32	  53
  32	  54
  32	  55
  33	  36
  33	  37
  33	  38
  33	  39
  33	  40
  33	  43
  33	  44
  33	  46
  33	  50
  33	  53
  33	  54
  33	  56
  33	  58
  33	  59
  34	  35
  34	  36
  34	  37
  34	  38
  34	  40
  34	  41
  34	  42
  34	  44
  34	  47
  34	  50
  34	  51
  34	  52
  34	  57
  34	  58
  35	  39
  35	  40
  35	  44
  35	  48
  35	  50
  35	  53
  35	  55
  35	  57
  35	  58
  36	  37
  36	  38
  36	  41
  36	  43
  36	  44
  36	  45
  36	  46
  36	  49
  36	  51
  36	  55
  36	  56
  36	  57
  36	  58
  36	  59
  37	  38
  37	  39
  37	  42
  37	  46
  37	  47
  37	  48
  37	  52
  37	  54
  37	  55
  37	  58
  37	  59
  38	  39
  38	  40
  38	  41
  38	  46
  38	  49
  38	  50
  38	  52
  38	  57
  39	  41
  39	  43
  39	  46
  39	  47
  39	  48
  39	  49
  39	  51
  39	  52
  39	  54
  39	  55
  39	  56
  39	  58
  39	  59
  40	  41
  40	  42
  40	  45
  40	  46
  40	  47
  40	  51
  40	  52
  40	  55
  41	  43
  41	  45
  41	  46
  41	  49
  41	  51
  41	  52
  41	  54
  41	  56
  41	  57
  41	  59
  42	  43
  42	  45
  42	  51
  42	  52
  42	  53
  42	  54
  42	  55
  42	  56
  42	  58
  43	  45
  43	  46
  43	  50
  43	  51
  43	  53
  43	  54
  43	  55
  43	  56
  43	  59
  44	  45
  44	  46
  44	  47
  44	  49
  44	  53
  44	  56
  44	  57
  44	  59
  45	  46
  45	  49
  45	  50
  45	  51
  45	  52
  45	  54
  45	  55
  45	  56
  45	  58
  46	  47
  46	  49
  46	  52
  46	  53
  46	  59
  47	  48
  47	  50
  47	  51
  47	  52
  47	  55
  47	  57
  48	  50
  48	  52
  48	  57
  48	  58
  48	  59
  49	  50
  49	  54
  49	  55
  49	  57
  49	  58
  50	  51
  50	  52
  50	  53
  50	  54
  50	  56
  50	  57
  50	  58
  50	  59
  51	  52
  51	  53
  51	  56
  51	  57
  51	  58
  52	  53
  52	  54
  52	  55
  52	  57
  52	  58
  53	  55
  53	  57
  54	  55
  55	  58
  56	  57
  57	  59
  58	  59
;
